letting n = 8
letting board=[[3, 3, 3, 3, 3, 3, 3, 3], [3, 7, 7, 7, 7, 7, 7, 3], [0, 2, 7, 7, 7, 7, 5, 4], [0, 2, 2, 7, 7, 5, 5, 4], [0, 0, 0, 7, 7, 5, 4, 4], [1, 1, 7, 7, 7, 7, 4, 6], [1, 7, 7, 7, 7, 7, 7, 6], [1, 1, 1, 1, 6, 6, 6, 6]]
